<?xml version = "1.0" encoding="UTF-8" standalone="yes"?>
<CPLEXSolution version="1.2">
 <header
   problemName="IloCplex"
   solutionName="p0"
   solutionIndex="-1"
   objectiveValue="0"
   solutionTypeValue="3"
   solutionTypeString="primal"
   solutionStatusValue="127"
   solutionStatusString="integer feasible solution"
   solutionMethodString="mip"
   primalFeasible="0"
   dualFeasible="0"
   writeLevel="3"/>
 <quality
   epInt="1.0000000000000001e-05"
   epRHS="9.9999999999999995e-07"
   maxIntInfeas="0"
   maxPrimalInfeas="0"
   maxX="44119"
   maxSlack="41640"/>
 <variables>
  <variable index="50" value="1"/>
  <variable index="146" value="1"/>
  <variable index="228" value="1"/>
  <variable index="348" value="1"/>
  <variable index="451" value="1"/>
  <variable index="526" value="1"/>
  <variable index="629" value="1"/>
  <variable index="786" value="1"/>
  <variable index="891" value="1"/>
  <variable index="933" value="1"/>
  <variable index="1024" value="1"/>
  <variable index="1198" value="1"/>
  <variable index="1297" value="1"/>
  <variable index="1383" value="1"/>
  <variable index="1420" value="1"/>
  <variable index="1607" value="1"/>
  <variable index="1667" value="1"/>
  <variable index="1734" value="1"/>
  <variable index="1843" value="1"/>
  <variable index="2004" value="1"/>
  <variable index="2103" value="1"/>
  <variable index="2218" value="1"/>
  <variable index="2279" value="1"/>
  <variable index="2400" value="1"/>
  <variable index="2505" value="1"/>
  <variable index="2606" value="1"/>
  <variable index="2676" value="1"/>
  <variable index="2764" value="1"/>
  <variable index="2890" value="1"/>
  <variable index="2969" value="1"/>
  <variable index="3088" value="1"/>
  <variable index="3212" value="1"/>
  <variable index="3314" value="1"/>
  <variable index="3354" value="1"/>
  <variable index="3449" value="1"/>
  <variable index="3538" value="1"/>
  <variable index="3717" value="1"/>
  <variable index="3740" value="1"/>
  <variable index="3842" value="1"/>
  <variable index="3947" value="1"/>
  <variable index="4025" value="1"/>
  <variable index="4187" value="1"/>
  <variable index="4265" value="1"/>
  <variable index="4378" value="1"/>
  <variable index="4477" value="1"/>
  <variable index="4602" value="1"/>
  <variable index="4689" value="1"/>
  <variable index="4739" value="1"/>
  <variable index="4860" value="1"/>
  <variable index="5008" value="1"/>
  <variable index="5057" value="1"/>
  <variable index="5162" value="1"/>
  <variable index="5255" value="1"/>
  <variable index="5359" value="1"/>
  <variable index="5444" value="1"/>
  <variable index="5580" value="1"/>
  <variable index="5694" value="1"/>
  <variable index="5752" value="1"/>
  <variable index="5827" value="1"/>
  <variable index="5982" value="1"/>
  <variable index="6053" value="1"/>
  <variable index="6184" value="1"/>
  <variable index="6315" value="1"/>
  <variable index="6393" value="1"/>
  <variable index="6475" value="1"/>
  <variable index="6599" value="1"/>
  <variable index="6621" value="1"/>
  <variable index="6730" value="1"/>
  <variable index="6823" value="1"/>
  <variable index="7019" value="1"/>
  <variable index="7111" value="1"/>
  <variable index="7166" value="1"/>
  <variable index="7261" value="1"/>
  <variable index="7385" value="1"/>
  <variable index="7456" value="1"/>
  <variable index="7532" value="1"/>
  <variable index="7701" value="1"/>
  <variable index="7735" value="1"/>
  <variable index="7845" value="1"/>
  <variable index="7970" value="1"/>
  <variable index="8068" value="1"/>
  <variable index="8181" value="1"/>
  <variable index="8231" value="1"/>
  <variable index="8410" value="1"/>
  <variable index="8516" value="1"/>
  <variable index="8558" value="1"/>
  <variable index="8671" value="1"/>
  <variable index="8792" value="1"/>
  <variable index="8836" value="1"/>
  <variable index="8973" value="1"/>
  <variable index="9072" value="1"/>
  <variable index="9174" value="1"/>
  <variable index="9241" value="1"/>
  <variable index="9409" value="1"/>
  <variable index="9463" value="1"/>
  <variable index="9613" value="1"/>
  <variable index="9695" value="1"/>
  <variable index="9737" value="1"/>
  <variable index="9822" value="1"/>
  <variable index="9996" value="1"/>
  <variable index="10040" value="44119"/>
 </variables>
</CPLEXSolution>
